2000	50	0,6	0,15	4,37191780	39
2000	50	0,6	0,15	4,26575040	39
2000	50	0,6	0,15	4,90344100	39
2000	50	0,6	0,15	5,29828220	39
2000	50	0,6	0,15	4,94544020	39
2000	50	0,6	0,15	4,27596510	39
2000	50	0,6	0,15	4,70788730	39
2000	50	0,6	0,15	5,54146740	39
2000	50	0,6	0,15	4,23566890	39
2000	50	0,6	0,15	4,25349260	39
